submitit INFO (2023-04-29 16:24:57,852) - Starting with JobEnvironment(job_id=27464, hostname=cpunode3, local_rank=3(5), node=0(1), global_rank=3(5))
submitit INFO (2023-04-29 16:24:57,852) - Loading pickle: /h/30/pashootan/Matrix-Mult-CP/src/../logs/2x2x2_3_Apr29_16:24:56/27464_submitted.pkl
 ! --------------------------------------------------- CP Optimizer 22.1.1.0 --
 ! Satisfiability problem - 36 variables, 124 constraints
 ! TimeLimit            = 172800
 ! Workers              = 8
 ! LogPeriod            = 10000000
 ! RandomSeed           = 6699
 ! Initial process time : 0.02s (0.02s extraction + 0.00s propagation)
 !  . Log search space  : 57.1 (before), 57.1 (after)
 !  . Memory usage      : 405.2 kB (before), 405.2 kB (after)
 ! Using parallel search with 8 workers.
 ! ----------------------------------------------------------------------------
 !               Branches  Non-fixed    W       Branch decision
 ! ----------------------------------------------------------------------------
 ! Search completed, model has no solution.
 ! ----------------------------------------------------------------------------
 ! Number of branches     : 127794
 ! Number of fails        : 62553
 ! Total memory usage     : 8.1 MB (8.1 MB CP Optimizer + 0.0 MB Concert)
 ! Time spent in solve    : 0.22s (0.21s engine + 0.02s extraction)
 ! Search speed (br. / s) : 608542.9
 ! ----------------------------------------------------------------------------
Infeasible
Saving stats to: /h/30/pashootan/Matrix-Mult-CP/logs/2x2x2_3_Apr29_16:24:56/27464_3_stats.csv
submitit INFO (2023-04-29 16:24:58,706) - Job completed successfully
